#              Generated by Buildcell
#
# at 10:08:46 (GMT+1.0) 25th June 2020
# in /scratch/scratch/uccabz1/launch_tmp
# on node-k10f-023
# by uccabz1
#
# compiler GCC version 4.9.2
# options -cpp -iprefix /scratch/UCL/applications/gcc/4.9.2/bin/../lib/gcc/x86_64-unknown-linux-gnu/4.9.2/ -mtune=corei7 -march=x86-64 -g -O2
#
# seed  1555586267    -2930334   628337117 -1817870759  1905551052   342359676   -52787290 -1049631852  -894579488 -1217995142  -233625235  1645470896
#
#      Author: C. J. Pickard (cjp20@cam.ac.uk)
#                Space group: I-4
#

%BLOCK LATTICE_ABC
      5.95116      5.95116      7.70457
    112.71885    112.71885     90.00000
%ENDBLOCK LATTICE_ABC

%BLOCK POSITIONS_FRAC
  Li  -0.3462231  -0.4190686  -0.3829075 SPIN=   0.00000
  Li  -0.0366844   0.0361610  -0.3829075 SPIN=   0.00000
  Li  -0.0361610   0.3462231   0.3829075 SPIN=   0.00000
  Li   0.4190686   0.0366844   0.3829075 SPIN=   0.00000
   O   0.2613472   0.1951681   0.1705956 SPIN=   0.00000
   O   0.4259884   0.6684592   0.3505662 SPIN=   0.00000
   O  -0.0907516  -0.0245725   0.1705956 SPIN=   0.00000
   O  -0.0754223  -0.3178930   0.3505662 SPIN=   0.00000
   O   0.0245725  -0.2613472  -0.1705956 SPIN=   0.00000
   O   0.3178930  -0.4259884  -0.3505662 SPIN=   0.00000
   O  -0.1951681   0.0907516  -0.1705956 SPIN=   0.00000
   O  -0.6684592   0.0754223  -0.3505662 SPIN=   0.00000
  Si  -0.3565549  -0.3565549   0.2868903 SPIN=   0.00000
  Si   0.3565549   0.3565549  -0.2868903 SPIN=   0.00000
  Fe   0.4797552  -0.0202448  -0.0404896 SPIN=   4.00000
  Fe   0.0202448  -0.4797552   0.0404896 SPIN=   4.00000
%ENDBLOCK POSITIONS_FRAC

# Note: total spin =   8.00

KPOINTS_MP_SPACING 0.07

%BLOCK SPECIES_POT
QC5
%ENDBLOCK SPECIES_POT

SNAP_TO_SYMMETRY
SYMMETRY_GENERATE
