#              Generated by Buildcell
#
# at 11:44:39 (GMT+1.0) 24th May 2020
# in /home/bonan/appdir/airssd/airssd/fws/tests/test_data/gulp_relax
# on DESKTOP-EMLNJAS
# by bonan
#
# compiler GCC version 7.5.0
# options -cpp -imultiarch x86_64-linux-gnu -mtune=generic -march=x86-64 -g -Og
#
# seed  1934831496  1330410022   357989813 -1846107067   366570750   148432080  -328126295 -1891555871   342206508 -1230372658  1469548977  1975787135  -779321940  -311290031  -394956566  1841156841   607106862  -141735658 -1181932118    55334425 -2109321274 -2144302639  -939309734   645665682  -434360217  -725425220   -29694775 -1263070912  -380417976  -516275477  1531295667  2050753693 -1193860706
#
#      Author: C. J. Pickard (cjp20@cam.ac.uk)
#                Space group: P1
#

%BLOCK LATTICE_ABC
      1.38835      2.03615      2.10448
     62.08702     84.74884     87.87713
%ENDBLOCK LATTICE_ABC

%BLOCK POSITIONS_FRAC
   C        0.4593270        0.0217424        0.8144021
   C        0.9287812        0.6477037        0.4387687
%ENDBLOCK POSITIONS_FRAC

KPOINTS_MP_SPACING 0.1
