%BLOCK lattice_cart
       2.43451938625528      -0.128836453746572       0.476281336215781    
      0.117058720812241        2.48011251289288       0.749001554410567E-01
      0.937748361654186        1.14031243673668        1.99768381920607    
%ENDBLOCK lattice_cart

%BLOCK positions_frac
   C              0.568987833786588      -0.040215188615624       0.876588051056522
   C              0.819120366213412       0.709661288615624       0.376582748943478
%ENDBLOCK positions_frac
# CELL file written 18:01:07 (GMT+1.0) 20th August 2020 from run C2-RAND


FIX_COM : true

%BLOCK species_pot
   C       2|1.4|10|12|13|20:21(qc=7)
%ENDBLOCK species_pot

SYMMETRY_TOL :     0.001000

%BLOCK symmetry_ops
# Symm. op. 1       E
          1.000000000000000       0.000000000000000       0.000000000000000
          0.000000000000000       1.000000000000000       0.000000000000000
          0.000000000000000       0.000000000000000       1.000000000000000
          0.000000000000000       0.000000000000000       0.000000000000000
%ENDBLOCK symmetry_ops

kpoint_mp_grid :    5   5   6

