%BLOCK LATTICE_CART
3.914865 0 0
0 3.914865 0
0 0 3.914865
%ENDBLOCK LATTICE_CART

#VARVOL=60

%BLOCK POSITIONS_FRAC
Sr 0.0 0.0 0.0 # Sr1 % NUM=1
Sr 0.0 0.0 0.0 # Sr2 % NUM=1
Sr 0.0 0.0 0.0 # Sr3 % NUM=1
Sr 0.0 0.0 0.0 # Sr4 % NUM=1
Ti 0.0 0.0 0.0 # Ti1 % NUM=1
Ti 0.0 0.0 0.0 # Ti2 % NUM=1
Ti 0.0 0.0 0.0 # Ti3 % NUM=1
Ti 0.0 0.0 0.0 # Ti4 % NUM=1
O 0.0 0.0 0.0 # O1 % NUM=1
O 0.0 0.0 0.0 # O2 % NUM=1
O 0.0 0.0 0.0 # O3 % NUM=1
O 0.0 0.0 0.0 # O4 % NUM=1
O 0.0 0.0 0.0 # O5 % NUM=1
O 0.0 0.0 0.0 # O6 % NUM=1
O 0.0 0.0 0.0 # O7 % NUM=1
O 0.0 0.0 0.0 # O8 % NUM=1
O 0.0 0.0 0.0 # O9 % NUM=1
O 0.0 0.0 0.0 # O10 % NUM=1
O 0.0 0.0 0.0 # O11 % NUM=1
O 0.0 0.0 0.0 # O12 % NUM=1
%ENDBLOCK POSITIONS_FRAC

##SPECIES=Sr,Ti,O
##NATOM=3-9
##FOCUS=3

#SYMMOPS=2-4
##SGRANK=20
#NFORM=1
##ADJGEN=0-1
#SLACK=0.25
#OVERLAP=0.1
#MINSEP=1-3 AUTO
#COMPACT
#CELLADAPT
##SYSTEM={Rhom,Tric,Mono,Cubi,Hexa,Orth,Tetra}

KPOINTS_MP_SPACING 0.07

SYMMETRY_GENERATE
SNAP_TO_SYMMETRY

%BLOCK SPECIES_POT
QC5
%ENDBLOCK SPECIES_POT

%BLOCK EXTERNAL_PRESSURE
0 0 0
0 0
0
%ENDBLOCK EXTERNAL_PRESSURE
