%BLOCK LATTICE_CART
3.009 0 0
0 3.009 0
0 0 3.009
%ENDBLOCK LATTICE_CART
 
#VARVOL=30
 
%BLOCK POSITIONS_FRAC
Si 0.5 0.0 0.0 # Si1 % NUM=1
Si 0.5 0.0 0.0 # Si2 % NUM=1
%ENDBLOCK POSITIONS_FRAC

 
KPOINTS_MP_SPACING 0.07
 
SYMMETRY_GENERATE
SNAP_TO_SYMMETRY
 
%BLOCK SPECIES_POT
QC5
%ENDBLOCK SPECIES_POT
 
%BLOCK EXTERNAL_PRESSURE
0 0 0
0 0
0
%ENDBLOCK EXTERNAL_PRESSURE
